p tw 205 503
1 2
1 10
1 12
1 15
1 16
2 10
2 12
2 15
2 16
3 4
3 9
3 11
3 13
3 14
4 9
4 11
4 13
4 14
5 6
5 17
5 18
5 19
5 20
5 21
5 22
6 17
6 18
6 19
6 20
6 21
6 22
7 8
7 23
7 24
8 23
8 24
9 42
10 44
11 46
12 48
13 14
13 15
13 25
13 26
13 29
13 30
14 50
15 16
15 25
15 26
15 29
15 30
16 52
17 18
18 54
19 20
20 56
21 22
21 23
21 27
21 28
21 31
21 32
22 58
23 24
23 27
23 28
23 31
23 32
24 60
25 26
25 27
26 64
27 28
28 66
29 30
29 31
30 68
31 32
32 70
33 34
33 43
33 44
33 47
33 48
33 51
33 52
34 43
34 44
34 47
34 48
34 51
34 52
35 36
35 41
35 42
35 45
35 46
35 49
35 50
36 41
36 42
36 45
36 46
36 49
36 50
37 38
37 53
37 54
37 55
37 56
37 57
37 58
38 53
38 54
38 55
38 56
38 57
38 58
39 40
39 59
39 60
40 59
40 60
41 42
41 43
41 61
41 62
42 82
43 44
43 61
43 62
44 84
45 46
46 86
47 48
48 88
49 50
49 51
49 63
49 64
49 67
49 68
50 90
51 52
51 63
51 64
51 67
51 68
52 92
53 54
54 94
55 56
55 100
56 98
57 58
57 59
57 65
57 66
57 69
57 70
58 102
59 60
59 65
59 66
59 69
59 70
60 104
61 106
62 108
63 64
63 65
64 110
65 66
66 112
67 68
68 114
69 70
70 116
71 72
71 83
71 84
71 87
71 88
71 91
71 92
72 83
72 84
72 87
72 88
72 91
72 92
73 74
73 81
73 82
73 85
73 86
73 89
73 90
74 81
74 82
74 85
74 86
74 89
74 90
75 76
75 95
75 96
75 99
75 100
76 95
76 96
76 99
76 100
77 78
77 93
77 94
77 97
77 98
77 101
77 102
78 93
78 94
78 97
78 98
78 101
78 102
79 80
79 103
79 104
80 103
80 104
81 82
81 83
81 105
81 106
81 107
81 108
82 126
83 84
83 105
83 106
83 107
83 108
84 128
85 86
86 130
87 88
88 132
89 90
89 91
89 109
89 110
89 113
89 114
90 134
91 92
91 109
91 110
91 113
91 114
92 136
93 94
94 138
95 96
97 98
97 99
98 140
99 100
100 139
101 102
101 103
101 111
101 112
101 115
101 116
102 142
103 104
103 111
103 112
103 115
103 116
104 144
105 106
106 145
107 108
108 146
109 110
109 111
110 148
111 112
112 150
113 114
114 152
115 116
116 154
117 118
117 127
117 128
117 131
117 132
117 135
117 136
118 127
118 128
118 131
118 132
118 135
118 136
119 120
119 125
119 126
119 129
119 130
119 133
119 134
120 125
120 126
120 129
120 130
120 133
120 134
121 122
121 137
121 138
121 139
121 140
121 141
121 142
122 137
122 138
122 139
122 140
122 141
122 142
123 124
123 143
123 144
124 143
124 144
125 126
125 127
125 145
125 146
126 163
127 128
127 145
127 146
128 164
129 130
130 165
131 132
132 166
133 134
133 135
133 147
133 148
133 151
133 152
134 168
135 136
135 147
135 148
135 151
135 152
136 170
137 138
138 172
139 140
140 174
141 142
141 143
141 149
141 150
141 153
141 154
142 176
143 144
143 149
143 150
143 153
143 154
144 178
147 148
147 149
148 180
149 150
150 182
151 152
152 184
153 154
154 186
155 156
155 164
155 166
155 169
155 170
156 164
156 166
156 169
156 170
157 158
157 163
157 165
157 167
157 168
158 163
158 165
158 167
158 168
159 160
159 171
159 172
159 173
159 174
159 175
159 176
160 171
160 172
160 173
160 174
160 175
160 176
161 162
161 177
161 178
162 177
162 178
167 168
167 169
167 179
167 180
167 183
167 184
168 191
169 170
169 179
169 180
169 183
169 184
170 192
171 172
172 193
173 174
174 194
175 176
175 177
175 181
175 182
175 185
175 186
176 196
177 178
177 181
177 182
177 185
177 186
178 198
179 180
179 181
180 200
181 182
182 202
183 184
184 203
185 186
186 205
187 188
187 193
187 194
187 195
187 196
188 193
188 194
188 195
188 196
189 190
189 197
189 198
190 197
190 198
191 192
191 199
191 200
191 203
192 199
192 200
192 203
195 196
195 197
195 201
195 202
195 204
195 205
197 198
197 201
197 202
197 204
197 205
199 200
199 201
201 202
204 205
